decision_x1=[0,2];
decision_x2=[0,2];
decision_x3=[0,2];
decision_x4=[0,2];
decision_x5=[0,2];
decision_x6=[0,2];
decision_x7=[0,2];
decision_x8=[0,2];
decision_x9=[0,2];
decision_x10=[0,2];
decision_x11=[0,2];
decision_x12=[0,2];
random_y1=[0,2];
random_y2=[0,2];
random_y3=[0,2];
random_y4=[0,2];
random_y5=[0,2];
random_y6=[0,2];
random_y7=[0,2];
random_y8=[0,2];
random_y9=[0,2];
random_y10=[0,2];
random_y11=[0,2];
random_y12=[0,2];
constraint_x2_x1=[
0,0,53|
0,1,2.5|
0,2,14|
1,0,3.9|
1,1,64|
1,2,69|
2,0,43|
2,1,4.6|
2,2,15|
];
constraint_x3_x1=[
0,0,72|
0,1,34|
0,2,24|
1,0,62|
1,1,56|
1,2,48|
2,0,89|
2,1,24|
2,2,25|
];
constraint_x4_x1=[
0,0,61|
0,1,30|
0,2,52|
1,0,55|
1,1,95|
1,2,65|
2,0,79|
2,1,90|
2,2,63|
];
constraint_x4_x2=[
0,0,50|
0,1,4.7|
0,2,51|
1,0,53|
1,1,85|
1,2,91|
2,0,39|
2,1,26|
2,2,60|
];
constraint_x4_x3=[
0,0,77|
0,1,65|
0,2,47|
1,0,98|
1,1,67|
1,2,39|
2,0,98|
2,1,26|
2,2,68|
];
constraint_x5_x1=[
0,0,21|
0,1,92|
0,2,50|
1,0,0.053|
1,1,30|
1,2,40|
2,0,35|
2,1,12|
2,2,37|
];
constraint_x5_x2=[
0,0,72|
0,1,42|
0,2,28|
1,0,6.2|
1,1,41|
1,2,56|
2,0,33|
2,1,70|
2,2,76|
];
constraint_x5_x3=[
0,0,0.25|
0,1,40|
0,2,13|
1,0,28|
1,1,81|
1,2,40|
2,0,34|
2,1,46|
2,2,24|
];
constraint_x6_x2=[
0,0,60|
0,1,13|
0,2,27|
1,0,0.79|
1,1,86|
1,2,69|
2,0,17|
2,1,71|
2,2,24|
];
constraint_x6_x4=[
0,0,79|
0,1,86|
0,2,27|
1,0,93|
1,1,60|
1,2,39|
2,0,56|
2,1,23|
2,2,94|
];
constraint_x7_x1=[
0,0,44|
0,1,23|
0,2,85|
1,0,70|
1,1,76|
1,2,78|
2,0,25|
2,1,22|
2,2,20|
];
constraint_x7_x3=[
0,0,21|
0,1,67|
0,2,44|
1,0,33|
1,1,1|
1,2,23|
2,0,18|
2,1,58|
2,2,1.1|
];
constraint_x7_x4=[
0,0,31|
0,1,5.6|
0,2,44|
1,0,46|
1,1,27|
1,2,24|
2,0,13|
2,1,71|
2,2,91|
];
constraint_x7_x5=[
0,0,7|
0,1,8.4|
0,2,89|
1,0,44|
1,1,40|
1,2,33|
2,0,79|
2,1,94|
2,2,17|
];
constraint_x8_x1=[
0,0,38|
0,1,20|
0,2,2.3|
1,0,57|
1,1,25|
1,2,79|
2,0,31|
2,1,97|
2,2,79|
];
constraint_x8_x2=[
0,0,97|
0,1,32|
0,2,65|
1,0,38|
1,1,16|
1,2,54|
2,0,79|
2,1,69|
2,2,14|
];
constraint_x8_x4=[
0,0,2.3|
0,1,5.5|
0,2,51|
1,0,97|
1,1,81|
1,2,8.2|
2,0,30|
2,1,78|
2,2,18|
];
constraint_x8_x6=[
0,0,44|
0,1,45|
0,2,19|
1,0,25|
1,1,88|
1,2,28|
2,0,88|
2,1,35|
2,2,27|
];
constraint_x8_x7=[
0,0,43|
0,1,54|
0,2,76|
1,0,81|
1,1,92|
1,2,6.9|
2,0,94|
2,1,53|
2,2,23|
];
constraint_x9_x1=[
0,0,99|
0,1,70|
0,2,32|
1,0,69|
1,1,46|
1,2,22|
2,0,15|
2,1,60|
2,2,6.3|
];
constraint_x9_x2=[
0,0,29|
0,1,56|
0,2,80|
1,0,81|
1,1,88|
1,2,14|
2,0,51|
2,1,86|
2,2,98|
];
constraint_x9_x6=[
0,0,83|
0,1,85|
0,2,21|
1,0,49|
1,1,96|
1,2,53|
2,0,38|
2,1,23|
2,2,51|
];
constraint_x10_x2=[
0,0,58|
0,1,35|
0,2,95|
1,0,95|
1,1,65|
1,2,63|
2,0,30|
2,1,25|
2,2,89|
];
constraint_x10_x6=[
0,0,19|
0,1,18|
0,2,69|
1,0,52|
1,1,88|
1,2,51|
2,0,74|
2,1,95|
2,2,81|
];
constraint_x11_x1=[
0,0,55|
0,1,56|
0,2,59|
1,0,88|
1,1,67|
1,2,85|
2,0,3.1|
2,1,58|
2,2,87|
];
constraint_x11_x4=[
0,0,73|
0,1,18|
0,2,83|
1,0,16|
1,1,61|
1,2,8|
2,0,21|
2,1,8.1|
2,2,74|
];
constraint_x11_x5=[
0,0,17|
0,1,3.5|
0,2,89|
1,0,51|
1,1,86|
1,2,35|
2,0,42|
2,1,14|
2,2,14|
];
constraint_x11_x6=[
0,0,77|
0,1,92|
0,2,12|
1,0,97|
1,1,36|
1,2,42|
2,0,4|
2,1,53|
2,2,89|
];
constraint_x11_x7=[
0,0,76|
0,1,56|
0,2,41|
1,0,59|
1,1,59|
1,2,44|
2,0,25|
2,1,42|
2,2,16|
];
constraint_x12_x2=[
0,0,77|
0,1,51|
0,2,31|
1,0,58|
1,1,73|
1,2,27|
2,0,37|
2,1,83|
2,2,54|
];
constraint_x12_x3=[
0,0,17|
0,1,56|
0,2,24|
1,0,61|
1,1,77|
1,2,61|
2,0,18|
2,1,56|
2,2,95|
];
constraint_x12_x4=[
0,0,16|
0,1,72|
0,2,75|
1,0,22|
1,1,80|
1,2,61|
2,0,47|
2,1,80|
2,2,64|
];
constraint_x12_x8=[
0,0,82|
0,1,69|
0,2,79|
1,0,1.6|
1,1,17|
1,2,45|
2,0,70|
2,1,84|
2,2,91|
];
constraint_x1_y1=[
0,0,47|
0,1,63|
0,2,20|
1,0,69|
1,1,40|
1,2,70|
2,0,85|
2,1,49|
2,2,50|
];
constraint_x2_y2=[
0,0,82|
0,1,66|
0,2,27|
1,0,15|
1,1,46|
1,2,47|
2,0,87|
2,1,26|
2,2,35|
];
constraint_x3_y3=[
0,0,96|
0,1,27|
0,2,83|
1,0,72|
1,1,57|
1,2,5.4|
2,0,41|
2,1,64|
2,2,24|
];
constraint_x4_y4=[
0,0,81|
0,1,98|
0,2,1.7|
1,0,63|
1,1,17|
1,2,51|
2,0,30|
2,1,12|
2,2,36|
];
constraint_x5_y5=[
0,0,24|
0,1,79|
0,2,34|
1,0,50|
1,1,12|
1,2,43|
2,0,64|
2,1,20|
2,2,42|
];
constraint_x6_y6=[
0,0,11|
0,1,43|
0,2,57|
1,0,24|
1,1,8|
1,2,24|
2,0,10|
2,1,35|
2,2,95|
];
constraint_x7_y7=[
0,0,6.7|
0,1,80|
0,2,71|
1,0,76|
1,1,79|
1,2,83|
2,0,2.4|
2,1,6.5|
2,2,33|
];
constraint_x8_y8=[
0,0,27|
0,1,73|
0,2,35|
1,0,43|
1,1,61|
1,2,58|
2,0,0.89|
2,1,80|
2,2,58|
];
constraint_x9_y9=[
0,0,47|
0,1,34|
0,2,15|
1,0,13|
1,1,85|
1,2,73|
2,0,41|
2,1,83|
2,2,0.66|
];
constraint_x10_y10=[
0,0,4.2|
0,1,64|
0,2,4.6|
1,0,40|
1,1,98|
1,2,32|
2,0,10|
2,1,55|
2,2,66|
];
constraint_x11_y11=[
0,0,84|
0,1,53|
0,2,53|
1,0,27|
1,1,74|
1,2,62|
2,0,61|
2,1,83|
2,2,95|
];
constraint_x12_y12=[
0,0,23|
0,1,21|
0,2,45|
1,0,70|
1,1,44|
1,2,65|
2,0,35|
2,1,30|
2,2,79|
];
initial_distribution_y1=[0.48,0.49,0.028];
initial_distribution_y2=[0.39,0.25,0.35];
initial_distribution_y3=[0.12,0.44,0.44];
initial_distribution_y4=[0.31,0.63,0.061];
initial_distribution_y5=[0.37,0.082,0.55];
initial_distribution_y6=[0.38,0.37,0.25];
initial_distribution_y7=[0.38,0.56,0.055];
initial_distribution_y8=[0.2,0.29,0.51];
initial_distribution_y9=[0.17,0.33,0.5];
initial_distribution_y10=[0.23,0.28,0.49];
initial_distribution_y11=[0.12,0.38,0.5];
initial_distribution_y12=[0.25,0.71,0.042];
transition_y1=[
0.29,0.31,0.4|
0.21,0.34,0.45|
0.23,0.32,0.45|
];
transition_y2=[
0.056,0.49,0.46|
0.51,0.095,0.4|
0.27,0.17,0.56|
];
transition_y3=[
0.46,0.43,0.12|
0.34,0.35,0.32|
0.34,0.63,0.031|
];
transition_y4=[
0.41,0.25,0.35|
0.47,0.11,0.42|
0.65,0.26,0.084|
];
transition_y5=[
0.4,0.48,0.13|
0.41,0.39,0.2|
0.15,0.58,0.27|
];
transition_y6=[
0.26,0.34,0.4|
0.62,0.26,0.13|
0.22,0.6,0.18|
];
transition_y7=[
0.58,0.032,0.38|
0.1,0.32,0.57|
0.3,0.54,0.16|
];
transition_y8=[
0.25,0.3,0.45|
0.29,0.35,0.36|
0.34,0.47,0.18|
];
transition_y9=[
0.49,0.22,0.3|
0.47,0.47,0.06|
0.13,0.39,0.48|
];
transition_y10=[
0.036,0.54,0.42|
0.37,0.36,0.27|
0.55,0.38,0.063|
];
transition_y11=[
0.45,0.067,0.48|
0.17,0.57,0.27|
0.24,0.13,0.63|
];
transition_y12=[
0.28,0.22,0.5|
0.42,0.45,0.13|
0.73,0.14,0.13|
];
